p cnf 120 933
33 93 2 62 32 92 0
33 93 2 62 7 67 0
33 93 32 92 7 67 0
2 62 32 92 7 67 0
-33 -2 -32 0
-93 -2 -32 0
-33 -2 -92 0
-93 -2 -92 0
-33 -62 -32 0
-93 -62 -32 0
-33 -62 -92 0
-93 -62 -92 0
-33 -2 -7 0
-93 -2 -7 0
-33 -2 -67 0
-93 -2 -67 0
-33 -62 -7 0
-93 -62 -7 0
-33 -62 -67 0
-93 -62 -67 0
-33 -32 -7 0
-93 -32 -7 0
-33 -32 -67 0
-93 -32 -67 0
-33 -92 -7 0
-93 -92 -7 0
-33 -92 -67 0
-93 -92 -67 0
-2 -32 -7 0
-62 -32 -7 0
-2 -32 -67 0
-62 -32 -67 0
-2 -92 -7 0
-62 -92 -7 0
-2 -92 -67 0
-62 -92 -67 0
35 95 4 64 34 94 0
35 95 4 64 9 69 0
35 95 34 94 9 69 0
4 64 34 94 9 69 0
-35 -4 -34 0
-95 -4 -34 0
-35 -4 -94 0
-95 -4 -94 0
-35 -64 -34 0
-95 -64 -34 0
-35 -64 -94 0
-95 -64 -94 0
-35 -4 -9 0
-95 -4 -9 0
-35 -4 -69 0
-95 -4 -69 0
-35 -64 -9 0
-95 -64 -9 0
-35 -64 -69 0
-95 -64 -69 0
-35 -34 -9 0
-95 -34 -9 0
-35 -34 -69 0
-95 -34 -69 0
-35 -94 -9 0
-95 -94 -9 0
-35 -94 -69 0
-95 -94 -69 0
-4 -34 -9 0
-64 -34 -9 0
-4 -34 -69 0
-64 -34 -69 0
-4 -94 -9 0
-64 -94 -9 0
-4 -94 -69 0
-64 -94 -69 0
69 9 74 14 100 40 101 41 0
-41 -9 0
-41 -69 0
-101 -9 0
-101 -69 0
-41 -40 0
-41 -100 0
-101 -40 0
-101 -100 0
-41 -14 0
-41 -74 0
-101 -14 0
-101 -74 0
-9 -40 0
-41 -9 0
-41 -9 0
-41 -9 0
-9 -14 0
-9 -74 0
-69 -14 0
-69 -74 0
-40 -14 0
-40 -74 0
-100 -14 0
-100 -74 0
42 102 10 70 0
42 102 41 101 0
42 102 15 75 0
10 70 41 101 0
10 70 15 75 0
41 101 15 75 0
-42 -10 -41 -15 0
-42 -10 -41 -75 0
-42 -10 -101 -15 0
-42 -10 -101 -75 0
-42 -70 -41 -15 0
-42 -70 -41 -75 0
-42 -70 -101 -15 0
-42 -70 -101 -75 0
-102 -10 -41 -15 0
-102 -10 -41 -75 0
-102 -10 -101 -15 0
-102 -10 -101 -75 0
-102 -70 -41 -15 0
-102 -70 -41 -75 0
-102 -70 -101 -15 0
-102 -70 -101 -75 0
44 104 11 71 43 103 0
44 104 11 71 16 76 0
44 104 43 103 16 76 0
11 71 43 103 16 76 0
-44 -11 -43 0
-104 -11 -43 0
-44 -11 -103 0
-104 -11 -103 0
-44 -71 -43 0
-104 -71 -43 0
-44 -71 -103 0
-104 -71 -103 0
-44 -11 -16 0
-104 -11 -16 0
-44 -11 -76 0
-104 -11 -76 0
-44 -71 -16 0
-104 -71 -16 0
-44 -71 -76 0
-104 -71 -76 0
-44 -43 -16 0
-104 -43 -16 0
-44 -43 -76 0
-104 -43 -76 0
-44 -103 -16 0
-104 -103 -16 0
-44 -103 -76 0
-104 -103 -76 0
-11 -43 -16 0
-71 -43 -16 0
-11 -43 -76 0
-71 -43 -76 0
-11 -103 -16 0
-71 -103 -16 0
-11 -103 -76 0
-71 -103 -76 0
45 105 12 72 0
45 105 44 104 0
45 105 17 77 0
12 72 44 104 0
12 72 17 77 0
44 104 17 77 0
-45 -12 -44 -17 0
-45 -12 -44 -77 0
-45 -12 -104 -17 0
-45 -12 -104 -77 0
-45 -72 -44 -17 0
-45 -72 -44 -77 0
-45 -72 -104 -17 0
-45 -72 -104 -77 0
-105 -12 -44 -17 0
-105 -12 -44 -77 0
-105 -12 -104 -17 0
-105 -12 -104 -77 0
-105 -72 -44 -17 0
-105 -72 -44 -77 0
-105 -72 -104 -17 0
-105 -72 -104 -77 0
46 106 13 73 45 105 0
46 106 13 73 18 78 0
46 106 45 105 18 78 0
13 73 45 105 18 78 0
-46 -13 -45 0
-106 -13 -45 0
-46 -13 -105 0
-106 -13 -105 0
-46 -73 -45 0
-106 -73 -45 0
-46 -73 -105 0
-106 -73 -105 0
-46 -13 -18 0
-106 -13 -18 0
-46 -13 -78 0
-106 -13 -78 0
-46 -73 -18 0
-106 -73 -18 0
-46 -73 -78 0
-106 -73 -78 0
-46 -45 -18 0
-106 -45 -18 0
-46 -45 -78 0
-106 -45 -78 0
-46 -105 -18 0
-106 -105 -18 0
-46 -105 -78 0
-106 -105 -78 0
-13 -45 -18 0
-73 -45 -18 0
-13 -45 -78 0
-73 -45 -78 0
-13 -105 -18 0
-73 -105 -18 0
-13 -105 -78 0
-73 -105 -78 0
48 108 15 75 47 107 0
48 108 15 75 20 80 0
48 108 47 107 20 80 0
15 75 47 107 20 80 0
-48 -15 -47 0
-108 -15 -47 0
-48 -15 -107 0
-108 -15 -107 0
-48 -75 -47 0
-108 -75 -47 0
-48 -75 -107 0
-108 -75 -107 0
-48 -15 -20 0
-108 -15 -20 0
-48 -15 -80 0
-108 -15 -80 0
-48 -75 -20 0
-108 -75 -20 0
-48 -75 -80 0
-108 -75 -80 0
-48 -47 -20 0
-108 -47 -20 0
-48 -47 -80 0
-108 -47 -80 0
-48 -107 -20 0
-108 -107 -20 0
-48 -107 -80 0
-108 -107 -80 0
-15 -47 -20 0
-75 -47 -20 0
-15 -47 -80 0
-75 -47 -80 0
-15 -107 -20 0
-75 -107 -20 0
-15 -107 -80 0
-75 -107 -80 0
50 110 16 76 49 109 0
50 110 16 76 21 81 0
50 110 49 109 21 81 0
16 76 49 109 21 81 0
-50 -16 -49 0
-110 -16 -49 0
-50 -16 -109 0
-110 -16 -109 0
-50 -76 -49 0
-110 -76 -49 0
-50 -76 -109 0
-110 -76 -109 0
-50 -16 -21 0
-110 -16 -21 0
-50 -16 -81 0
-110 -16 -81 0
-50 -76 -21 0
-110 -76 -21 0
-50 -76 -81 0
-110 -76 -81 0
-50 -49 -21 0
-110 -49 -21 0
-50 -49 -81 0
-110 -49 -81 0
-50 -109 -21 0
-110 -109 -21 0
-50 -109 -81 0
-110 -109 -81 0
-16 -49 -21 0
-76 -49 -21 0
-16 -49 -81 0
-76 -49 -81 0
-16 -109 -21 0
-76 -109 -21 0
-16 -109 -81 0
-76 -109 -81 0
52 112 18 78 51 111 0
52 112 18 78 23 83 0
52 112 51 111 23 83 0
18 78 51 111 23 83 0
-52 -18 -51 0
-112 -18 -51 0
-52 -18 -111 0
-112 -18 -111 0
-52 -78 -51 0
-112 -78 -51 0
-52 -78 -111 0
-112 -78 -111 0
-52 -18 -23 0
-112 -18 -23 0
-52 -18 -83 0
-112 -18 -83 0
-52 -78 -23 0
-112 -78 -23 0
-52 -78 -83 0
-112 -78 -83 0
-52 -51 -23 0
-112 -51 -23 0
-52 -51 -83 0
-112 -51 -83 0
-52 -111 -23 0
-112 -111 -23 0
-52 -111 -83 0
-112 -111 -83 0
-18 -51 -23 0
-78 -51 -23 0
-18 -51 -83 0
-78 -51 -83 0
-18 -111 -23 0
-78 -111 -23 0
-18 -111 -83 0
-78 -111 -83 0
53 113 19 79 52 112 0
53 113 19 79 24 84 0
53 113 52 112 24 84 0
19 79 52 112 24 84 0
-53 -19 -52 0
-113 -19 -52 0
-53 -19 -112 0
-113 -19 -112 0
-53 -79 -52 0
-113 -79 -52 0
-53 -79 -112 0
-113 -79 -112 0
-53 -19 -24 0
-113 -19 -24 0
-53 -19 -84 0
-113 -19 -84 0
-53 -79 -24 0
-113 -79 -24 0
-53 -79 -84 0
-113 -79 -84 0
-53 -52 -24 0
-113 -52 -24 0
-53 -52 -84 0
-113 -52 -84 0
-53 -112 -24 0
-113 -112 -24 0
-53 -112 -84 0
-113 -112 -84 0
-19 -52 -24 0
-79 -52 -24 0
-19 -52 -84 0
-79 -52 -84 0
-19 -112 -24 0
-79 -112 -24 0
-19 -112 -84 0
-79 -112 -84 0
-80 0
-20 0
-85 0
-25 0
-113 0
-53 0
-114 0
-54 0
57 117 22 82 0
57 117 56 116 0
57 117 27 87 0
22 82 56 116 0
22 82 27 87 0
56 116 27 87 0
-57 -22 -56 -27 0
-57 -22 -56 -87 0
-57 -22 -116 -27 0
-57 -22 -116 -87 0
-57 -82 -56 -27 0
-57 -82 -56 -87 0
-57 -82 -116 -27 0
-57 -82 -116 -87 0
-117 -22 -56 -27 0
-117 -22 -56 -87 0
-117 -22 -116 -27 0
-117 -22 -116 -87 0
-117 -82 -56 -27 0
-117 -82 -56 -87 0
-117 -82 -116 -27 0
-117 -82 -116 -87 0
-85 0
-25 0
-90 0
-30 0
-119 0
-59 0
-120 0
-60 0
-61 -91 0
-1 -31 0
-61 -1 0
-91 -31 0
-91 1 0
-61 31 0
-62 -92 0
-62 -1 0
-92 -1 0
-2 -32 0
-2 -61 0
-32 -61 0
-62 -2 0
-92 -32 0
-1 -61 0
-1 2 32 0
-92 2 61 0
-62 61 32 0
-63 -93 0
-63 -2 0
-93 -2 0
-3 -33 0
-3 -62 0
-33 -62 0
-63 -3 0
-93 -33 0
-2 -62 0
-2 3 33 0
-93 3 62 0
-63 62 33 0
-64 -94 0
-64 -3 0
-94 -3 0
-4 -34 0
-4 -63 0
-34 -63 0
-64 -4 0
-94 -34 0
-3 -63 0
-3 4 34 0
-94 4 63 0
-64 63 34 0
-65 -95 0
-65 -4 0
-95 -4 0
-5 -35 0
-5 -64 0
-35 -64 0
-65 -5 0
-95 -35 0
-4 -64 0
-4 5 35 0
-95 5 64 0
-65 64 35 0
-96 -5 0
-36 -65 0
-96 -36 0
-5 -65 0
-5 36 0
-96 65 0
-31 -66 0
-31 -97 0
-66 -97 0
-91 -6 0
-91 -37 0
-6 -37 0
-31 -91 0
-66 -6 0
-97 -37 0
-66 91 37 0
-97 91 6 0
-31 6 37 0
-32 -67 0
-32 -98 0
-32 -6 0
-67 -98 0
-67 -6 0
-98 -6 0
-92 -7 0
-92 -38 0
-92 -66 0
-7 -38 0
-7 -66 0
-38 -66 0
-32 -92 0
-67 -7 0
-98 -38 0
-6 -66 0
-32 7 38 66 0
-67 92 38 66 0
-98 92 7 66 0
-6 92 7 38 0
-33 -68 0
-33 -99 0
-33 -7 0
-68 -99 0
-68 -7 0
-99 -7 0
-93 -8 0
-93 -39 0
-93 -67 0
-8 -39 0
-8 -67 0
-39 -67 0
-33 -93 0
-68 -8 0
-99 -39 0
-7 -67 0
-33 8 39 67 0
-68 93 39 67 0
-99 93 8 67 0
-7 93 8 39 0
-34 -69 0
-34 -100 0
-34 -8 0
-69 -100 0
-69 -8 0
-100 -8 0
-94 -9 0
-94 -40 0
-94 -68 0
-9 -40 0
-9 -68 0
-40 -68 0
-34 -94 0
-69 -9 0
-100 -40 0
-8 -68 0
-34 9 40 68 0
-69 94 40 68 0
-100 94 9 68 0
-8 94 9 40 0
-35 -70 0
-35 -101 0
-35 -9 0
-70 -101 0
-70 -9 0
-101 -9 0
-95 -10 0
-95 -41 0
-95 -69 0
-10 -41 0
-10 -69 0
-41 -69 0
-35 -95 0
-70 -10 0
-101 -41 0
-9 -69 0
-35 10 41 69 0
-70 95 41 69 0
-101 95 10 69 0
-9 95 10 41 0
-36 -102 0
-36 -10 0
-102 -10 0
-96 -42 0
-96 -70 0
-42 -70 0
-36 -96 0
-102 -42 0
-10 -70 0
-10 96 42 0
-36 70 42 0
-102 96 70 0
-37 -71 0
-37 -103 0
-71 -103 0
-97 -11 0
-97 -43 0
-11 -43 0
-37 -97 0
-71 -11 0
-103 -43 0
-71 97 43 0
-103 97 11 0
-37 11 43 0
-38 -72 0
-38 -104 0
-38 -11 0
-72 -104 0
-72 -11 0
-104 -11 0
-98 -12 0
-98 -44 0
-98 -71 0
-12 -44 0
-12 -71 0
-44 -71 0
-38 -98 0
-72 -12 0
-104 -44 0
-11 -71 0
-38 12 44 71 0
-72 98 44 71 0
-104 98 12 71 0
-11 98 12 44 0
-39 -73 0
-39 -105 0
-39 -12 0
-73 -105 0
-73 -12 0
-105 -12 0
-99 -13 0
-99 -45 0
-99 -72 0
-13 -45 0
-13 -72 0
-45 -72 0
-39 -99 0
-73 -13 0
-105 -45 0
-12 -72 0
-39 13 45 72 0
-73 99 45 72 0
-105 99 13 72 0
-12 99 13 45 0
-40 -74 0
-40 -106 0
-40 -13 0
-74 -106 0
-74 -13 0
-106 -13 0
-100 -14 0
-100 -46 0
-100 -73 0
-14 -46 0
-14 -73 0
-46 -73 0
-40 -100 0
-74 -14 0
-106 -46 0
-13 -73 0
-40 14 46 73 0
-74 100 46 73 0
-106 100 14 73 0
-13 100 14 46 0
-41 -75 0
-41 -107 0
-41 -14 0
-75 -107 0
-75 -14 0
-107 -14 0
-101 -15 0
-101 -47 0
-101 -74 0
-15 -47 0
-15 -74 0
-47 -74 0
-41 -101 0
-75 -15 0
-107 -47 0
-14 -74 0
-41 15 47 74 0
-75 101 47 74 0
-107 101 15 74 0
-14 101 15 47 0
-42 -108 0
-42 -15 0
-108 -15 0
-102 -48 0
-102 -75 0
-48 -75 0
-42 -102 0
-108 -48 0
-15 -75 0
-15 102 48 0
-42 75 48 0
-108 102 75 0
-43 -76 0
-43 -109 0
-76 -109 0
-103 -16 0
-103 -49 0
-16 -49 0
-43 -103 0
-76 -16 0
-109 -49 0
-76 103 49 0
-109 103 16 0
-43 16 49 0
-44 -77 0
-44 -110 0
-44 -16 0
-77 -110 0
-77 -16 0
-110 -16 0
-104 -17 0
-104 -50 0
-104 -76 0
-17 -50 0
-17 -76 0
-50 -76 0
-44 -104 0
-77 -17 0
-110 -50 0
-16 -76 0
-44 17 50 76 0
-77 104 50 76 0
-110 104 17 76 0
-16 104 17 50 0
-45 -78 0
-45 -111 0
-45 -17 0
-78 -111 0
-78 -17 0
-111 -17 0
-105 -18 0
-105 -51 0
-105 -77 0
-18 -51 0
-18 -77 0
-51 -77 0
-45 -105 0
-78 -18 0
-111 -51 0
-17 -77 0
-45 18 51 77 0
-78 105 51 77 0
-111 105 18 77 0
-17 105 18 51 0
-46 -79 0
-46 -112 0
-46 -18 0
-79 -112 0
-79 -18 0
-112 -18 0
-106 -19 0
-106 -52 0
-106 -78 0
-19 -52 0
-19 -78 0
-52 -78 0
-46 -106 0
-79 -19 0
-112 -52 0
-18 -78 0
-46 19 52 78 0
-79 106 52 78 0
-112 106 19 78 0
-18 106 19 52 0
-47 -80 0
-47 -113 0
-47 -19 0
-80 -113 0
-80 -19 0
-113 -19 0
-107 -20 0
-107 -53 0
-107 -79 0
-20 -53 0
-20 -79 0
-53 -79 0
-47 -107 0
-80 -20 0
-113 -53 0
-19 -79 0
-47 20 53 79 0
-80 107 53 79 0
-113 107 20 79 0
-19 107 20 53 0
-48 -114 0
-48 -20 0
-114 -20 0
-108 -54 0
-108 -80 0
-54 -80 0
-48 -108 0
-114 -54 0
-20 -80 0
-20 108 54 0
-48 80 54 0
-114 108 80 0
-49 -81 0
-49 -115 0
-81 -115 0
-109 -21 0
-109 -55 0
-21 -55 0
-49 -109 0
-81 -21 0
-115 -55 0
-81 109 55 0
-115 109 21 0
-49 21 55 0
-50 -82 0
-50 -116 0
-50 -21 0
-82 -116 0
-82 -21 0
-116 -21 0
-110 -22 0
-110 -56 0
-110 -81 0
-22 -56 0
-22 -81 0
-56 -81 0
-50 -110 0
-82 -22 0
-116 -56 0
-21 -81 0
-50 22 56 81 0
-82 110 56 81 0
-116 110 22 81 0
-21 110 22 56 0
-51 -83 0
-51 -117 0
-51 -22 0
-83 -117 0
-83 -22 0
-117 -22 0
-111 -23 0
-111 -57 0
-111 -82 0
-23 -57 0
-23 -82 0
-57 -82 0
-51 -111 0
-83 -23 0
-117 -57 0
-22 -82 0
-51 23 57 82 0
-83 111 57 82 0
-117 111 23 82 0
-22 111 23 57 0
-52 -84 0
-52 -118 0
-52 -23 0
-84 -118 0
-84 -23 0
-118 -23 0
-112 -24 0
-112 -58 0
-112 -83 0
-24 -58 0
-24 -83 0
-58 -83 0
-52 -112 0
-84 -24 0
-118 -58 0
-23 -83 0
-52 24 58 83 0
-84 112 58 83 0
-118 112 24 83 0
-23 112 24 58 0
-53 -85 0
-53 -119 0
-53 -24 0
-85 -119 0
-85 -24 0
-119 -24 0
-113 -25 0
-113 -59 0
-113 -84 0
-25 -59 0
-25 -84 0
-59 -84 0
-53 -113 0
-85 -25 0
-119 -59 0
-24 -84 0
-53 25 59 84 0
-85 113 59 84 0
-119 113 25 84 0
-24 113 25 59 0
-54 -120 0
-54 -25 0
-120 -25 0
-114 -60 0
-114 -85 0
-60 -85 0
-54 -114 0
-120 -60 0
-25 -85 0
-25 114 60 0
-54 85 60 0
-120 114 85 0
-55 -86 0
-115 -26 0
-55 -115 0
-86 -26 0
-86 115 0
-55 26 0
-56 -87 0
-56 -26 0
-87 -26 0
-116 -27 0
-116 -86 0
-27 -86 0
-56 -116 0
-87 -27 0
-26 -86 0
-87 116 86 0
-56 27 86 0
-26 27 116 0
-57 -88 0
-57 -27 0
-88 -27 0
-117 -28 0
-117 -87 0
-28 -87 0
-57 -117 0
-88 -28 0
-27 -87 0
-88 117 87 0
-57 28 87 0
-27 28 117 0
-58 -89 0
-58 -28 0
-89 -28 0
-118 -29 0
-118 -88 0
-29 -88 0
-58 -118 0
-89 -29 0
-28 -88 0
-89 118 88 0
-58 29 88 0
-28 29 118 0
-59 -90 0
-59 -29 0
-90 -29 0
-119 -30 0
-119 -89 0
-30 -89 0
-59 -119 0
-90 -30 0
-29 -89 0
-90 119 89 0
-59 30 89 0
-29 30 119 0
-60 -30 0
-120 -90 0
-60 -120 0
-30 -90 0
-30 120 0
-60 90 0
1 2 3 4 5 6 7 8 9 10 11 12 -13 14 -15 16 -17 18 -19 20 -21 22 -23 24 25 26 -27 28 29 30 -31 32 33 34 35 36 -37 -38 39 40 41 42 -43 -44 45 46 47 48 -49 50 51 52 53 54 55 -56 57 58 59 60 -61 -62 -63 -64 65 66 -67 -68 69 -70 71 72 73 74 75 76 77 78 79 80 81 82 83 84 85 86 87 88 89 90 91 92 93 94 -95 96 97 98 99 -100 101 -102 103 104 -105 106 -107 108 109 110 111 -112 113 114 115 116 -117 118 119 120  0
-1 -2 -3 -4 5 6 7 8 9 -10 11 12 -13 14 15 16 -17 18 19 20 21 22 23 24 25 26 27 28 29 30 31 32 33 34 -35 36 37 -38 39 40 41 -42 43 -44 45 46 -47 48 49 50 51 -52 53 54 55 56 -57 58 59 60 61 62 63 64 65 66 -67 -68 69 70 71 72 73 74 -75 76 77 78 -79 80 -81 82 -83 84 85 86 -87 88 89 90 -91 92 93 94 95 96 -97 98 99 -100 101 102 -103 104 -105 106 107 108 -109 110 111 112 113 114 115 -116 117 118 119 120  0
